p tw 144 23761 2 
1 3 
1 4 
1 5 
1 6 
1 7 
1 8 
1 9 
1 10 
1 11 
1 12 
1 13 
1 18 
1 25 
1 32 
1 37 
1 47 
1 49 
1 50 
1 61 
1 65 
1 73 
1 76 
1 85 
1 87 
1 97 
1 108 
1 109 
1 117 
1 121 
1 127 
1 133 
1 142 
2 3 
2 4 
2 5 
2 6 
2 7 
2 8 
2 9 
2 10 
2 11 
2 12 
2 14 
2 16 
2 26 
2 30 
2 38 
2 41 
2 50 
2 58 
2 62 
2 63 
2 74 
2 80 
2 85 
2 86 
2 98 
2 107 
2 110 
2 115 
2 122 
2 132 
2 134 
2 141 
3 4 
3 5 
3 6 
3 7 
3 8 
3 9 
3 10 
3 11 
3 12 
3 15 
3 24 
3 27 
3 35 
3 39 
3 46 
3 49 
3 51 
3 63 
3 64 
3 74 
3 75 
3 87 
3 91 
3 99 
3 105 
3 111 
3 116 
3 123 
3 125 
3 135 
3 138 
4 5 
4 6 
4 7 
4 8 
4 9 
4 10 
4 11 
4 12 
4 13 
4 16 
4 26 
4 28 
4 40 
4 43 
4 52 
4 60 
4 64 
4 71 
4 76 
4 81 
4 88 
4 92 
4 100 
4 106 
4 111 
4 112 
4 124 
4 126 
4 136 
4 137 
5 6 
5 7 
5 8 
5 9 
5 10 
5 11 
5 12 
5 17 
5 21 
5 29 
5 31 
5 41 
5 42 
5 52 
5 53 
5 65 
5 68 
5 75 
5 77 
5 86 
5 89 
5 97 
5 101 
5 113 
5 120 
5 125 
5 130 
5 137 
5 143 
6 7 
6 8 
6 9 
6 10 
6 11 
6 12 
6 18 
6 22 
6 29 
6 30 
6 42 
6 48 
6 54 
6 59 
6 62 
6 66 
6 78 
6 79 
6 90 
6 93 
6 102 
6 104 
6 109 
6 114 
6 124 
6 126 
6 135 
6 138 
7 8 
7 9 
7 10 
7 11 
7 12 
7 19 
7 23 
7 31 
7 33 
7 43 
7 44 
7 51 
7 55 
7 66 
7 67 
7 79 
7 82 
7 88 
7 91 
7 101 
7 103 
7 110 
7 115 
7 121 
7 127 
7 139 
7 144 
8 9 
8 10 
8 11 
8 12 
8 14 
8 20 
8 27 
8 32 
8 37 
8 44 
8 56 
8 57 
8 68 
8 72 
8 77 
8 80 
8 92 
8 94 
8 102 
8 104 
8 112 
8 116 
8 128 
8 131 
8 139 
8 140 
9 10 
9 11 
9 12 
9 17 
9 21 
9 25 
9 33 
9 38 
9 45 
9 56 
9 57 
9 69 
9 70 
9 81 
9 83 
9 93 
9 96 
9 103 
9 105 
9 114 
9 117 
9 123 
9 129 
9 136 
9 141 
10 11 
10 12 
10 19 
10 22 
10 28 
10 34 
10 39 
10 46 
10 54 
10 58 
10 69 
10 70 
10 82 
10 84 
10 94 
10 95 
10 98 
10 106 
10 113 
10 118 
10 128 
10 130 
10 133 
10 142 
11 12 
11 20 
11 23 
11 35 
11 36 
11 40 
11 47 
11 53 
11 59 
11 67 
11 71 
11 73 
11 83 
11 90 
11 95 
11 99 
11 107 
11 118 
11 119 
11 129 
11 131 
11 134 
11 143 
12 15 
12 24 
12 34 
12 36 
12 45 
12 48 
12 55 
12 60 
12 61 
12 72 
12 78 
12 84 
12 89 
12 96 
12 100 
12 108 
12 119 
12 120 
12 122 
12 132 
12 140 
12 144 
13 14 
13 15 
13 16 
13 17 
13 18 
13 19 
13 20 
13 21 
13 22 
13 23 
13 24 
13 25 
13 26 
13 37 
13 43 
13 49 
13 60 
13 61 
13 71 
13 73 
13 81 
13 85 
13 92 
13 97 
13 106 
13 109 
13 111 
13 121 
13 126 
13 133 
13 137 
14 15 
14 16 
14 17 
14 18 
14 19 
14 20 
14 21 
14 22 
14 23 
14 24 
14 26 
14 27 
14 37 
14 38 
14 50 
14 57 
14 62 
14 72 
14 74 
14 77 
14 86 
14 94 
14 98 
14 102 
14 110 
14 112 
14 122 
14 131 
14 134 
14 139 
15 16 
15 17 
15 18 
15 19 
15 20 
15 21 
15 22 
15 23 
15 24 
15 27 
15 34 
15 39 
15 45 
15 51 
15 55 
15 61 
15 63 
15 75 
15 78 
15 87 
15 89 
15 99 
15 100 
15 111 
15 119 
15 122 
15 123 
15 135 
15 140 
16 17 
16 18 
16 19 
16 20 
16 21 
16 22 
16 23 
16 24 
16 28 
16 30 
16 40 
16 41 
16 52 
16 58 
16 63 
16 64 
16 76 
16 80 
16 85 
16 88 
16 100 
16 107 
16 112 
16 115 
16 124 
16 132 
16 136 
16 141 
17 18 
17 19 
17 20 
17 21 
17 22 
17 23 
17 24 
17 25 
17 29 
17 38 
17 41 
17 53 
17 56 
17 65 
17 70 
17 77 
17 83 
17 89 
17 96 
17 101 
17 103 
17 113 
17 114 
17 123 
17 125 
17 136 
17 137 
18 19 
18 20 
18 21 
18 22 
18 23 
18 24 
18 30 
18 32 
18 42 
18 47 
18 50 
18 54 
18 65 
18 66 
18 76 
18 78 
18 87 
18 90 
18 102 
18 108 
18 114 
18 117 
18 126 
18 127 
18 138 
18 142 
19 20 
19 21 
19 22 
19 23 
19 24 
19 28 
19 31 
19 39 
19 43 
19 54 
19 55 
19 67 
19 69 
19 79 
19 84 
19 91 
19 95 
19 98 
19 103 
19 113 
19 115 
19 127 
19 128 
19 133 
19 139 
20 21 
20 22 
20 23 
20 24 
20 32 
20 36 
20 40 
20 44 
20 53 
20 56 
20 67 
20 68 
20 73 
20 80 
20 90 
20 92 
20 99 
20 104 
20 116 
20 118 
20 128 
20 129 
20 134 
20 140 
21 22 
21 23 
21 24 
21 31 
21 33 
21 42 
21 45 
21 52 
21 57 
21 68 
21 69 
21 75 
21 81 
21 86 
21 93 
21 97 
21 105 
21 117 
21 120 
21 129 
21 130 
21 141 
21 143 
22 23 
22 24 
22 29 
22 34 
22 46 
22 48 
22 58 
22 59 
22 62 
22 70 
22 79 
22 82 
22 93 
22 94 
22 104 
22 106 
22 109 
22 118 
22 124 
22 130 
22 135 
22 142 
23 24 
23 33 
23 35 
23 44 
23 47 
23 51 
23 59 
23 66 
23 71 
23 82 
23 83 
23 88 
23 95 
23 101 
23 107 
23 110 
23 119 
23 121 
23 131 
23 143 
23 144 
24 35 
24 36 
24 46 
24 48 
24 49 
24 60 
24 64 
24 72 
24 74 
24 84 
24 91 
24 96 
24 105 
24 108 
24 116 
24 120 
24 125 
24 132 
24 138 
24 144 
25 26 
25 27 
25 28 
25 29 
25 30 
25 31 
25 32 
25 33 
25 34 
25 35 
25 36 
25 37 
25 38 
25 49 
25 56 
25 61 
25 70 
25 73 
25 83 
25 85 
25 96 
25 97 
25 103 
25 109 
25 114 
25 121 
25 123 
25 133 
25 136 
26 27 
26 28 
26 29 
26 30 
26 31 
26 32 
26 33 
26 34 
26 35 
26 36 
26 38 
26 43 
26 50 
26 60 
26 62 
26 71 
26 74 
26 81 
26 86 
26 92 
26 98 
26 106 
26 110 
26 111 
26 122 
26 126 
26 134 
26 137 
27 28 
27 29 
27 30 
27 31 
27 32 
27 33 
27 34 
27 35 
27 36 
27 37 
27 39 
27 51 
27 57 
27 63 
27 72 
27 75 
27 77 
27 87 
27 94 
27 99 
27 102 
27 111 
27 112 
27 123 
27 131 
27 135 
27 139 
28 29 
28 30 
28 31 
28 32 
28 33 
28 34 
28 35 
28 36 
28 39 
28 40 
28 52 
28 54 
28 64 
28 69 
28 76 
28 84 
28 88 
28 95 
28 98 
28 100 
28 112 
28 113 
28 124 
28 128 
28 133 
28 136 
29 30 
29 31 
29 32 
29 33 
29 34 
29 35 
29 36 
29 41 
29 48 
29 53 
29 59 
29 62 
29 65 
29 77 
29 79 
29 89 
29 93 
29 101 
29 104 
29 109 
29 113 
29 124 
29 125 
29 135 
29 137 
30 31 
30 32 
30 33 
30 34 
30 35 
30 36 
30 41 
30 42 
30 54 
30 58 
30 63 
30 66 
30 78 
30 80 
30 85 
30 90 
30 102 
30 107 
30 114 
30 115 
30 126 
30 132 
30 138 
30 141 
31 32 
31 33 
31 34 
31 35 
31 36 
31 42 
31 43 
31 52 
31 55 
31 67 
31 68 
31 75 
31 79 
31 86 
31 91 
31 97 
31 103 
31 115 
31 120 
31 127 
31 130 
31 139 
31 143 
32 33 
32 34 
32 35 
32 36 
32 44 
32 47 
32 50 
32 56 
32 65 
32 68 
32 76 
32 80 
32 87 
32 92 
32 104 
32 108 
32 116 
32 117 
32 127 
32 128 
32 140 
32 142 
33 34 
33 35 
33 36 
33 44 
33 45 
33 51 
33 57 
33 66 
33 69 
33 81 
33 82 
33 88 
33 93 
33 101 
33 105 
33 110 
33 117 
33 121 
33 129 
33 141 
33 144 
34 35 
34 36 
34 45 
34 46 
34 55 
34 58 
34 61 
34 70 
34 78 
34 82 
34 89 
34 94 
34 100 
34 106 
34 118 
34 119 
34 122 
34 130 
34 140 
34 142 
35 36 
35 46 
35 47 
35 49 
35 59 
35 64 
35 71 
35 74 
35 83 
35 91 
35 95 
35 105 
35 107 
35 116 
35 119 
35 125 
35 131 
35 138 
35 143 
36 40 
36 48 
36 53 
36 60 
36 67 
36 72 
36 73 
36 84 
36 90 
36 96 
36 99 
36 108 
36 118 
36 120 
36 129 
36 132 
36 134 
36 144 
37 38 
37 39 
37 40 
37 41 
37 42 
37 43 
37 44 
37 45 
37 46 
37 47 
37 48 
37 49 
37 57 
37 61 
37 72 
37 73 
37 77 
37 85 
37 94 
37 97 
37 102 
37 109 
37 112 
37 121 
37 131 
37 133 
37 139 
38 39 
38 40 
38 41 
38 42 
38 43 
38 44 
38 45 
38 46 
38 47 
38 48 
38 50 
38 56 
38 62 
38 70 
38 74 
38 83 
38 86 
38 96 
38 98 
38 103 
38 110 
38 114 
38 122 
38 123 
38 134 
38 136 
39 40 
39 41 
39 42 
39 43 
39 44 
39 45 
39 46 
39 47 
39 48 
39 51 
39 54 
39 63 
39 69 
39 75 
39 84 
39 87 
39 95 
39 98 
39 99 
39 111 
39 113 
39 123 
39 128 
39 133 
39 135 
40 41 
40 42 
40 43 
40 44 
40 45 
40 46 
40 47 
40 48 
40 52 
40 53 
40 64 
40 67 
40 73 
40 76 
40 88 
40 90 
40 99 
40 100 
40 112 
40 118 
40 124 
40 129 
40 134 
40 136 
41 42 
41 43 
41 44 
41 45 
41 46 
41 47 
41 48 
41 53 
41 58 
41 63 
41 65 
41 77 
41 80 
41 85 
41 89 
41 101 
41 107 
41 113 
41 115 
41 125 
41 132 
41 137 
41 141 
42 43 
42 44 
42 45 
42 46 
42 47 
42 48 
42 52 
42 54 
42 66 
42 68 
42 75 
42 78 
42 86 
42 90 
42 97 
42 102 
42 114 
42 120 
42 126 
42 130 
42 138 
42 143 
43 44 
43 45 
43 46 
43 47 
43 48 
43 55 
43 60 
43 67 
43 71 
43 79 
43 81 
43 91 
43 92 
43 103 
43 106 
43 111 
43 115 
43 126 
43 127 
43 137 
43 139 
44 45 
44 46 
44 47 
44 48 
44 51 
44 56 
44 66 
44 68 
44 80 
44 82 
44 88 
44 92 
44 101 
44 104 
44 110 
44 116 
44 121 
44 128 
44 140 
44 144 
45 46 
45 47 
45 48 
45 55 
45 57 
45 61 
45 69 
45 78 
45 81 
45 89 
45 93 
45 100 
45 105 
45 117 
45 119 
45 122 
45 129 
45 140 
45 141 
46 47 
46 48 
46 49 
46 58 
46 64 
46 70 
46 74 
46 82 
46 91 
46 94 
46 105 
46 106 
46 116 
46 118 
46 125 
46 130 
46 138 
46 142 
47 48 
47 50 
47 59 
47 65 
47 71 
47 76 
47 83 
47 87 
47 95 
47 107 
47 108 
47 117 
47 119 
47 127 
47 131 
47 142 
47 143 
48 59 
48 60 
48 62 
48 72 
48 79 
48 84 
48 93 
48 96 
48 104 
48 108 
48 109 
48 120 
48 124 
48 132 
48 135 
48 144 
49 50 
49 51 
49 52 
49 53 
49 54 
49 55 
49 56 
49 57 
49 58 
49 59 
49 60 
49 61 
49 64 
49 73 
49 74 
49 85 
49 91 
49 97 
49 105 
49 109 
49 116 
49 121 
49 125 
49 133 
49 138 
50 51 
50 52 
50 53 
50 54 
50 55 
50 56 
50 57 
50 58 
50 59 
50 60 
50 62 
50 65 
50 74 
50 76 
50 86 
50 87 
50 98 
50 108 
50 110 
50 117 
50 122 
50 127 
50 134 
50 142 
51 52 
51 53 
51 54 
51 55 
51 56 
51 57 
51 58 
51 59 
51 60 
51 63 
51 66 
51 75 
51 82 
51 87 
51 88 
51 99 
51 101 
51 110 
51 111 
51 121 
51 123 
51 135 
51 144 
52 53 
52 54 
52 55 
52 56 
52 57 
52 58 
52 59 
52 60 
52 64 
52 68 
52 75 
52 76 
52 86 
52 88 
52 97 
52 100 
52 112 
52 120 
52 124 
52 130 
52 136 
52 143 
53 54 
53 55 
53 56 
53 57 
53 58 
53 59 
53 60 
53 65 
53 67 
53 73 
53 77 
53 89 
53 90 
53 99 
53 101 
53 113 
53 118 
53 125 
53 129 
53 134 
53 137 
54 55 
54 56 
54 57 
54 58 
54 59 
54 60 
54 66 
54 69 
54 78 
54 84 
54 90 
54 95 
54 98 
54 102 
54 113 
54 114 
54 126 
54 128 
54 133 
54 138 
55 56 
55 57 
55 58 
55 59 
55 60 
55 61 
55 67 
55 78 
55 79 
55 89 
55 91 
55 100 
55 103 
55 115 
55 119 
55 122 
55 127 
55 139 
55 140 
56 57 
56 58 
56 59 
56 60 
56 68 
56 70 
56 80 
56 83 
56 92 
56 96 
56 103 
56 104 
56 114 
56 116 
56 123 
56 128 
56 136 
56 140 
57 58 
57 59 
57 60 
57 69 
57 72 
57 77 
57 81 
57 93 
57 94 
57 102 
57 105 
57 112 
57 117 
57 129 
57 131 
57 139 
57 141 
58 59 
58 60 
58 63 
58 70 
58 80 
58 82 
58 85 
58 94 
58 106 
58 107 
58 115 
58 118 
58 130 
58 132 
58 141 
58 142 
59 60 
59 62 
59 71 
59 79 
59 83 
59 93 
59 95 
59 104 
59 107 
59 109 
59 119 
59 124 
59 131 
59 135 
59 143 
60 71 
60 72 
60 81 
60 84 
60 92 
60 96 
60 106 
60 108 
60 111 
60 120 
60 126 
60 132 
60 137 
60 144 
61 62 
61 63 
61 64 
61 65 
61 66 
61 67 
61 68 
61 69 
61 70 
61 71 
61 72 
61 73 
61 78 
61 85 
61 89 
61 97 
61 100 
61 109 
61 119 
61 121 
61 122 
61 133 
61 140 
62 63 
62 64 
62 65 
62 66 
62 67 
62 68 
62 69 
62 70 
62 71 
62 72 
62 74 
62 79 
62 86 
62 93 
62 98 
62 104 
62 109 
62 110 
62 122 
62 124 
62 134 
62 135 
63 64 
63 65 
63 66 
63 67 
63 68 
63 69 
63 70 
63 71 
63 72 
63 75 
63 80 
63 85 
63 87 
63 99 
63 107 
63 111 
63 115 
63 123 
63 132 
63 135 
63 141 
64 65 
64 66 
64 67 
64 68 
64 69 
64 70 
64 71 
64 72 
64 74 
64 76 
64 88 
64 91 
64 100 
64 105 
64 112 
64 116 
64 124 
64 125 
64 136 
64 138 
65 66 
65 67 
65 68 
65 69 
65 70 
65 71 
65 72 
65 76 
65 77 
65 87 
65 89 
65 101 
65 108 
65 113 
65 117 
65 125 
65 127 
65 137 
65 142 
66 67 
66 68 
66 69 
66 70 
66 71 
66 72 
66 78 
66 82 
66 88 
66 90 
66 101 
66 102 
66 110 
66 114 
66 121 
66 126 
66 138 
66 144 
67 68 
67 69 
67 70 
67 71 
67 72 
67 73 
67 79 
67 90 
67 91 
67 99 
67 103 
67 115 
67 118 
67 127 
67 129 
67 134 
67 139 
68 69 
68 70 
68 71 
68 72 
68 75 
68 80 
68 86 
68 92 
68 97 
68 104 
68 116 
68 120 
68 128 
68 130 
68 140 
68 143 
69 70 
69 71 
69 72 
69 81 
69 84 
69 93 
69 95 
69 98 
69 105 
69 113 
69 117 
69 128 
69 129 
69 133 
69 141 
70 71 
70 72 
70 82 
70 83 
70 94 
70 96 
70 103 
70 106 
70 114 
70 118 
70 123 
70 130 
70 136 
70 142 
71 72 
71 81 
71 83 
71 92 
71 95 
71 106 
71 107 
71 111 
71 119 
71 126 
71 131 
71 137 
71 143 
72 77 
72 84 
72 94 
72 96 
72 102 
72 108 
72 112 
72 120 
72 131 
72 132 
72 139 
72 144 
73 74 
73 75 
73 76 
73 77 
73 78 
73 79 
73 80 
73 81 
73 82 
73 83 
73 84 
73 85 
73 90 
73 97 
73 99 
73 109 
73 118 
73 121 
73 129 
73 133 
73 134 
74 75 
74 76 
74 77 
74 78 
74 79 
74 80 
74 81 
74 82 
74 83 
74 84 
74 86 
74 91 
74 98 
74 105 
74 110 
74 116 
74 122 
74 125 
74 134 
74 138 
75 76 
75 77 
75 78 
75 79 
75 80 
75 81 
75 82 
75 83 
75 84 
75 86 
75 87 
75 97 
75 99 
75 111 
75 120 
75 123 
75 130 
75 135 
75 143 
76 77 
76 78 
76 79 
76 80 
76 81 
76 82 
76 83 
76 84 
76 87 
76 88 
76 100 
76 108 
76 112 
76 117 
76 124 
76 127 
76 136 
76 142 
77 78 
77 79 
77 80 
77 81 
77 82 
77 83 
77 84 
77 89 
77 94 
77 101 
77 102 
77 112 
77 113 
77 125 
77 131 
77 137 
77 139 
78 79 
78 80 
78 81 
78 82 
78 83 
78 84 
78 89 
78 90 
78 100 
78 102 
78 114 
78 119 
78 122 
78 126 
78 138 
78 140 
79 80 
79 81 
79 82 
79 83 
79 84 
79 91 
79 93 
79 103 
79 104 
79 109 
79 115 
79 124 
79 127 
79 135 
79 139 
80 81 
80 82 
80 83 
80 84 
80 85 
80 92 
80 104 
80 107 
80 115 
80 116 
80 128 
80 132 
80 140 
80 141 
81 82 
81 83 
81 84 
81 92 
81 93 
81 105 
81 106 
81 111 
81 117 
81 126 
81 129 
81 137 
81 141 
82 83 
82 84 
82 88 
82 94 
82 101 
82 106 
82 110 
82 118 
82 121 
82 130 
82 142 
82 144 
83 84 
83 95 
83 96 
83 103 
83 107 
83 114 
83 119 
83 123 
83 131 
83 136 
83 143 
84 95 
84 96 
84 98 
84 108 
84 113 
84 120 
84 128 
84 132 
84 133 
84 144 
85 86 
85 87 
85 88 
85 89 
85 90 
85 91 
85 92 
85 93 
85 94 
85 95 
85 96 
85 97 
85 107 
85 109 
85 115 
85 121 
85 132 
85 133 
85 141 
86 87 
86 88 
86 89 
86 90 
86 91 
86 92 
86 93 
86 94 
86 95 
86 96 
86 97 
86 98 
86 110 
86 120 
86 122 
86 130 
86 134 
86 143 
87 88 
87 89 
87 90 
87 91 
87 92 
87 93 
87 94 
87 95 
87 96 
87 99 
87 108 
87 111 
87 117 
87 123 
87 127 
87 135 
87 142 
88 89 
88 90 
88 91 
88 92 
88 93 
88 94 
88 95 
88 96 
88 100 
88 101 
88 110 
88 112 
88 121 
88 124 
88 136 
88 144 
89 90 
89 91 
89 92 
89 93 
89 94 
89 95 
89 96 
89 100 
89 101 
89 113 
89 119 
89 122 
89 125 
89 137 
89 140 
90 91 
90 92 
90 93 
90 94 
90 95 
90 96 
90 99 
90 102 
90 114 
90 118 
90 126 
90 129 
90 134 
90 138 
91 92 
91 93 
91 94 
91 95 
91 96 
91 103 
91 105 
91 115 
91 116 
91 125 
91 127 
91 138 
91 139 
92 93 
92 94 
92 95 
92 96 
92 104 
92 106 
92 111 
92 116 
92 126 
92 128 
92 137 
92 140 
93 94 
93 95 
93 96 
93 104 
93 105 
93 109 
93 117 
93 124 
93 129 
93 135 
93 141 
94 95 
94 96 
94 102 
94 106 
94 112 
94 118 
94 130 
94 131 
94 139 
94 142 
95 96 
95 98 
95 107 
95 113 
95 119 
95 128 
95 131 
95 133 
95 143 
96 103 
96 108 
96 114 
96 120 
96 123 
96 132 
96 136 
96 144 
97 98 
97 99 
97 100 
97 101 
97 102 
97 103 
97 104 
97 105 
97 106 
97 107 
97 108 
97 109 
97 120 
97 121 
97 130 
97 133 
97 143 
98 99 
98 100 
98 101 
98 102 
98 103 
98 104 
98 105 
98 106 
98 107 
98 108 
98 110 
98 113 
98 122 
98 128 
98 133 
98 134 
99 100 
99 101 
99 102 
99 103 
99 104 
99 105 
99 106 
99 107 
99 108 
99 111 
99 118 
99 123 
99 129 
99 134 
99 135 
100 101 
100 102 
100 103 
100 104 
100 105 
100 106 
100 107 
100 108 
100 112 
100 119 
100 122 
100 124 
100 136 
100 140 
101 102 
101 103 
101 104 
101 105 
101 106 
101 107 
101 108 
101 110 
101 113 
101 121 
101 125 
101 137 
101 144 
102 103 
102 104 
102 105 
102 106 
102 107 
102 108 
102 112 
102 114 
102 126 
102 131 
102 138 
102 139 
103 104 
103 105 
103 106 
103 107 
103 108 
103 114 
103 115 
103 123 
103 127 
103 136 
103 139 
104 105 
104 106 
104 107 
104 108 
104 109 
104 116 
104 124 
104 128 
104 135 
104 140 
105 106 
105 107 
105 108 
105 116 
105 117 
105 125 
105 129 
105 138 
105 141 
106 107 
106 108 
106 111 
106 118 
106 126 
106 130 
106 137 
106 142 
107 108 
107 115 
107 119 
107 131 
107 132 
107 141 
107 143 
108 117 
108 120 
108 127 
108 132 
108 142 
108 144 
109 110 
109 111 
109 112 
109 113 
109 114 
109 115 
109 116 
109 117 
109 118 
109 119 
109 120 
109 121 
109 124 
109 133 
109 135 
110 111 
110 112 
110 113 
110 114 
110 115 
110 116 
110 117 
110 118 
110 119 
110 120 
110 121 
110 122 
110 134 
110 144 
111 112 
111 113 
111 114 
111 115 
111 116 
111 117 
111 118 
111 119 
111 120 
111 123 
111 126 
111 135 
111 137 
112 113 
112 114 
112 115 
112 116 
112 117 
112 118 
112 119 
112 120 
112 124 
112 131 
112 136 
112 139 
113 114 
113 115 
113 116 
113 117 
113 118 
113 119 
113 120 
113 125 
113 128 
113 133 
113 137 
114 115 
114 116 
114 117 
114 118 
114 119 
114 120 
114 123 
114 126 
114 136 
114 138 
115 116 
115 117 
115 118 
115 119 
115 120 
115 127 
115 132 
115 139 
115 141 
116 117 
116 118 
116 119 
116 120 
116 125 
116 128 
116 138 
116 140 
117 118 
117 119 
117 120 
117 127 
117 129 
117 141 
117 142 
118 119 
118 120 
118 129 
118 130 
118 134 
118 142 
119 120 
119 122 
119 131 
119 140 
119 143 
120 130 
120 132 
120 143 
120 144 
121 122 
121 123 
121 124 
121 125 
121 126 
121 127 
121 128 
121 129 
121 130 
121 131 
121 132 
121 133 
121 144 
122 123 
122 124 
122 125 
122 126 
122 127 
122 128 
122 129 
122 130 
122 131 
122 132 
122 134 
122 140 
123 124 
123 125 
123 126 
123 127 
123 128 
123 129 
123 130 
123 131 
123 132 
123 135 
123 136 
124 125 
124 126 
124 127 
124 128 
124 129 
124 130 
124 131 
124 132 
124 135 
124 136 
125 126 
125 127 
125 128 
125 129 
125 130 
125 131 
125 132 
125 137 
125 138 
126 127 
126 128 
126 129 
126 130 
126 131 
126 132 
126 137 
126 138 
127 128 
127 129 
127 130 
127 131 
127 132 
127 139 
127 142 
128 129 
128 130 
128 131 
128 132 
128 133 
128 140 
129 130 
129 131 
129 132 
129 134 
129 141 
130 131 
130 132 
130 142 
130 143 
131 132 
131 139 
131 143 
132 141 
132 144 
133 134 
133 135 
133 136 
133 137 
133 138 
133 139 
133 140 
133 141 
133 142 
133 143 
133 144 
134 135 
134 136 
134 137 
134 138 
134 139 
134 140 
134 141 
134 142 
134 143 
134 144 
135 136 
135 137 
135 138 
135 139 
135 140 
135 141 
135 142 
135 143 
135 144 
136 137 
136 138 
136 139 
136 140 
136 141 
136 142 
136 143 
136 144 
137 138 
137 139 
137 140 
137 141 
137 142 
137 143 
137 144 
138 139 
138 140 
138 141 
138 142 
138 143 
138 144 
139 140 
139 141 
139 142 
139 143 
139 144 
140 141 
140 142 
140 143 
140 144 
141 142 
141 143 
141 144 
142 143 
142 144 
143 144 
